
Gurobi 13.0.2 (win64) logging started Wed Jul 22 22:22:54 2026

Set parameter LogFile to value "E:\codes\ExactEBRP\results\gf_paper_safe_gurobi_scheduling_round27\runs\stage2__V12_M2__c0_legacy__300s\external\native_logs\L2.1_attempt_1.gurobi.log"
Gurobi Optimizer version 13.0.2 build v13.0.2rc1 (win64 - Windows 10.0 (19045.2))

CPU model: 12th Gen Intel(R) Core(TM) i7-12700KF, instruction set [SSE2|AVX|AVX2]
Thread count: 12 physical cores, 20 logical processors, using up to 1 threads

Non-default parameters:
TimeLimit  60
MIPGap  0
MIPGapAbs  0
LogToConsole  0
Threads  1

Optimize a model with 11351 rows, 1034 columns and 113600 nonzeros (Min)
Model fingerprint: 0xe2641f98
Model has 13 linear objective coefficients
Variable types: 516 continuous, 518 integer (434 binary)
Coefficient statistics:
  Matrix range     [5e-05, 1e+05]
  Objective range  [5e-05, 1e+00]
  Bounds range     [4e-01, 3e+02]
  RHS range        [2e-01, 1e+06]

Presolved: 10164 rows, 1004 columns, 134190 nonzeros

Continuing optimization...

   778   398    0.69387   11  145          -    0.69387      -   112   30s
H  802   387                       0.7185041    0.69387  3.43%   115   34s
   837   385    0.69387   12  158    0.71850    0.69387  3.43%   111   35s
   893   386    0.70772   25   96    0.71850    0.69387  3.43%   122   40s
   970   368    0.69421   15  175    0.71850    0.69421  3.38%   126   45s
  1102   356    0.70176   20  125    0.71850    0.69938  2.66%   133   50s
  1319   278    0.71231   19  168    0.71850    0.70575  1.77%   137   55s
  1460   194    0.71264   27   70    0.71850    0.71144  0.98%   145   60s

Cutting planes:
  Learned: 6
  Cover: 29
  Implied bound: 83
  Projected implied bound: 4
  Clique: 7
  MIR: 100
  StrongCG: 5
  Flow cover: 143
  GUB cover: 4
  Zero half: 1
  Network: 13
  RLT: 6
  Relax-and-lift: 23
  BQP: 3

Explored 1581 nodes (232667 simplex iterations) in 61.84 seconds (130.16 work units)
Most recent optimization runtime was 31.84 seconds (75.10 work units)
Thread count was 1 (of 20 available processors)

Solution count 1: 0.718504 

Optimal solution found (tolerance 0.00e+00)
Best objective 7.185040707550e-01, best bound 7.185040707550e-01, gap 0.0000%

User-callback calls 8141, time in user-callback 0.00 sec
